% clingo version 5.5.2

% Reading from Eingabe.lp ...

% Solving...

% Answer: 1




hPathArea(3,3,8,10,1). hPathArea(1,4,7,10,2). hPathArea(4,5,7,10,3). hPathArea(5,7,7,10,4). hPathArea(2,8,4,10,5). hNarrowNode(5,10,3). hNarrowNode(6,10,3). hNarrowNode(7,10,3). hNarrowNode(6,10,4). hNarrowNode(7,7,4). hNarrowNode(7,8,4). hNarrowNode(7,9,4). hNarrowNode(7,10,4). hNarrowNode(4,10,5). hStep(3,10,4,10,1,0). hStep(1,10,1,9,2,0). hStep(4,10,5,10,3,0). hStep(5,10,6,10,4,0). hStep(2,10,3,10,5,0). hStep(8,4,8,3,1,11). hStep(6,4,7,4,2,11). hStep(7,6,7,5,3,7). hStep(7,8,7,7,4,4). hStep(4,9,4,8,5,3). hStep(4,10,5,10,1,1). hStep(5,10,6,10,1,2). hStep(6,10,7,10,1,3). hStep(8,5,8,4,1,10). hStep(8,6,8,5,1,9). hStep(8,7,8,6,1,8). hStep(8,8,8,7,1,7). hStep(8,9,8,8,1,6). hStep(8,10,8,9,1,5). hStep(7,10,8,10,1,4). hStep(1,5,1,4,2,5). hStep(1,6,1,5,2,4). hStep(1,7,1,6,2,3). hStep(1,8,1,7,2,2). hStep(1,9,1,8,2,1). hStep(1,4,2,4,2,6). hStep(2,4,3,4,2,7). hStep(3,4,4,4,2,8). hStep(4,4,5,4,2,9). hStep(5,4,6,4,2,10). hStep(5,10,6,10,3,1). hStep(7,7,7,6,3,6). hStep(7,8,7,7,3,5). hStep(7,9,7,8,3,4). hStep(7,10,7,9,3,3). hStep(6,10,7,10,3,2). hStep(7,9,7,8,4,3). hStep(7,10,7,9,4,2). hStep(6,10,7,10,4,1). hStep(4,10,4,9,5,2). hStep(3,10,4,10,5,1). occurs(object(robot,1),action(move,(0,-1)),5). occurs(object(robot,1),action(move,(0,-1)),6). occurs(object(robot,1),action(move,(0,-1)),7). occurs(object(robot,1),action(move,(0,-1)),8). occurs(object(robot,1),action(move,(0,-1)),9). occurs(object(robot,1),action(move,(0,-1)),10). occurs(object(robot,1),action(move,(0,-1)),11). occurs(object(robot,1),action(move,(1,0)),0). occurs(object(robot,1),action(move,(1,0)),1). occurs(object(robot,1),action(move,(1,0)),2). occurs(object(robot,1),action(move,(1,0)),3). occurs(object(robot,1),action(move,(1,0)),4). occurs(object(robot,2),action(move,(0,-1)),0). occurs(object(robot,2),action(move,(0,-1)),1). occurs(object(robot,2),action(move,(0,-1)),2). occurs(object(robot,2),action(move,(0,-1)),3). occurs(object(robot,2),action(move,(0,-1)),4). occurs(object(robot,2),action(move,(0,-1)),5). occurs(object(robot,2),action(move,(1,0)),6). occurs(object(robot,2),action(move,(1,0)),7). occurs(object(robot,2),action(move,(1,0)),8). occurs(object(robot,2),action(move,(1,0)),9). occurs(object(robot,2),action(move,(1,0)),10). occurs(object(robot,2),action(move,(1,0)),11). occurs(object(robot,3),action(move,(0,-1)),3). occurs(object(robot,3),action(move,(0,-1)),4). occurs(object(robot,3),action(move,(0,-1)),5). occurs(object(robot,3),action(move,(0,-1)),6). occurs(object(robot,3),action(move,(0,-1)),7). occurs(object(robot,3),action(move,(1,0)),0). occurs(object(robot,3),action(move,(1,0)),1). occurs(object(robot,3),action(move,(1,0)),2). occurs(object(robot,4),action(move,(0,-1)),2). occurs(object(robot,4),action(move,(0,-1)),3). occurs(object(robot,4),action(move,(0,-1)),4). occurs(object(robot,4),action(move,(1,0)),0). occurs(object(robot,4),action(move,(1,0)),1). occurs(object(robot,5),action(move,(0,-1)),2). occurs(object(robot,5),action(move,(0,-1)),3). occurs(object(robot,5),action(move,(1,0)),0). occurs(object(robot,5),action(move,(1,0)),1).

% 

% Models         : 1+

% Calls          : 1

% Time           : 2.821s (Solving: 0.09s 1st Model: 0.09s Unsat: 0.00s)

% CPU Time       : 2.813s

